WARNING: for repeatability, setting FPU to use double precision
============================[ Problem Statistics ]=============================
|                                                                             |
|  Number of variables:           100                                         |
|  Number of clauses:             449                                         |
|  Parse time:                   0.00 s                                       |
|  Eliminated clauses:           0.00 Mb                                      |
|  Simplification time:          0.00 s                                       |
|                                                                             |
============================[ Search Statistics ]==============================
| Conflicts |          ORIGINAL         |          LEARNT          | Progress |
|           |    Vars  Clauses Literals |    Limit  Clauses Lit/Cl |          |
===============================================================================
|       100 |      98      447     1351 |      163      100      7 |  0.020 % |
===============================================================================
restarts              : 2
conflicts             : 102            (55495 /sec)
decisions             : 156            (0.00 % random) (84875 /sec)
propagations          : 2328           (1266594 /sec)
conflict literals     : 687            (16.73 % deleted)
Memory used           : 13.00 MB
CPU time              : 0.001838 s

SATISFIABLE
